0000000000000000
0000000000000000
0001111111000000
0001111111000000
0000001111100000
0000001111100000
0000000111100000
0000000111100000
0000000111100000
0000011111100000
0000100001100000
0001000001100000
0011000001110000
0011000001110000
0111100011110000
0000000000000000
